NAME: GRASP_9_1
TYPE: TSP
COMMENT: line_9_1
DIMENSION: 9
EDGE_WEIGHT_TYPE: EUC_2D
NODE_COORD_SECTION
1 0.0 15.0
2 0.0 15.0
3 0.0 37.0
4 0.0 23.0
5 0.0 13.0
6 0.0 43.0
7 0.0 18.0
8 0.0 66.0
9 0.0 52.0
